p cnf 10 50
8 -1 -10 0
-4 9 -2 0
-4 1 3 0
-3 -10 -8 0
1 -10 -9 0
-10 8 -5 0
3 -9 1 0
-7 4 5 0
-1 2 -5 0
-6 4 -7 0
6 8 7 0
-4 8 -3 0
10 -2 6 0
-10 6 -3 0
-5 -1 7 0
-10 4 7 0
7 4 10 0
5 -6 3 0
-10 6 -7 0
-2 8 6 0
-9 -1 7 0
-10 -3 -2 0
6 -7 -3 0
1 -3 -8 0
-9 4 -2 0
-8 5 7 0
-8 5 -3 0
-4 8 10 0
7 9 -3 0
7 10 2 0
-1 9 4 0
1 -10 -7 0
10 8 -4 0
9 5 4 0
-2 5 9 0
9 2 -3 0
4 2 -1 0
9 -3 8 0
-3 -6 10 0
4 -7 6 0
-8 -6 1 0
4 -3 6 0
-1 7 -9 0
2 9 -1 0
-9 -1 3 0
-4 5 -3 0
5 3 6 0
-7 5 1 0
-8 -7 -10 0
10 7 -9 0
